variable        base_size index 1

variable        nnodes index 1
# Check to make sure nnodes is a perfect cube
variable        nnodes_cube_rt equal round(${nnodes}^(1/3))
variable        nnodes_recreate equal ${nnodes_cube_rt}^3
if "${nnodes} != ${nnodes_recreate}" then "print 'NNODES (${nnodes}) is not a perfect cube (root: ${nnodes_cube_rt}). Exiting.'" quit
variable        full_rep_size equal ${base_size}*${nnodes_cube_rt}

variable        nsteps index 100

processors * * * grid twolevel 8 2 2 2

units           real
atom_style      full
pair_style      lj/cut/coul/long 9.0
bond_style      harmonic
angle_style     harmonic
#special_bonds   lj/coul 1.0 1.0 1.0

read_data       w32k.data.gz
include         spce.ff.lmp

# The ``bbox`` keyword is optional, but translates to significant reduction in init time at scale
# Does not affect performance
# If close to integer overflow, replicate in a 2-step process -- 1 to size to a single node, then 2 to weak-scale to the current size
if "${full_rep_size} > 500" then &
    "replicate       ${base_size} ${base_size} ${base_size} bbox" &
    "replicate       ${nnodes_cube_rt} ${nnodes_cube_rt} ${nnodes_cube_rt} bbox" &
else &
    "replicate ${full_rep_size} ${full_rep_size} ${full_rep_size} bbox"

kspace_style    pppm 1.e-5
neigh_modify    delay 2 every 1 check yes

# Optional: use collectives instead of pt2pt send/recv in PPPM
# Not implemented in all functions yet
#kspace_modify   collective yes

# Print the coefficients as a sanity check
info            coeffs

thermo          10
thermo_style    custom step etotal temp pe ke evdwl ecoul elong ebond eangle density
thermo_modify   flush yes 

timestep        0.5

fix             1 all shake 1e-6 500 0 b 1 a 1
fix             2 all nvt temp 298.15 298.15 100.0

#velocity        all create 298.15 495787 mom yes dist gaussian loop local

run             ${nsteps}
